desiredZ=[1];
nNurses = 189;
hours = 71;
demand = [41 14 42 12 43 2 18 43 10 39 0 28 33 2 41 42 31 22 33 20 17 1 18 29 26 2 17 27 47 36 36 37 46 39 46 6 27 43 27 17 2 43 34 19 41 20 22 32 0 4 23 15 36 42 1 32 41 13 22 28 46 29 21 33 1 8 12 16 12 36 33];
minHours = 38;
maxHours = 43;
maxConsec = 7;
maxPresence = 49;